638
1 100 104
2 102 104
3 103 105
4 101 110
5 106 110
6 107 110
7 100 112
8 105 112
9 108 112
10 1 113
11 108 113
12 102 114
13 101 115
14 111 115
15 114 115
16 101 116
17 106 116
18 110 116
19 102 117
20 105 117
21 10 118
22 116 119
23 102 12
24 117 12
25 10 120
26 109 120
27 118 120
28 11 13
29 11 14
30 13 14
31 1 15
32 108 15
33 112 15
34 1 16
35 113 16
36 101 17
37 103 17
38 115 17
39 100 18
40 102 19
41 114 19
42 117 19
43 12 19
44 1 20
45 113 20
46 18 20
47 1 21
48 10 21
49 118 21
50 120 21
51 103 22
52 105 22
53 102 23
54 117 23
55 12 23
56 19 23
57 14 24
58 2 24
59 10 25
60 118 25
61 120 25
62 21 25
63 109 26
64 16 26
65 113 27
66 16 27
67 18 27
68 23 27
69 109 28
70 120 28
71 17 28
72 25 28
73 108 29
74 112 29
75 12 29
76 19 29
77 100 3
78 103 3
79 105 3
80 115 3
81 22 3
82 11 30
83 13 30
84 2 30
85 24 30
86 106 31
87 110 31
88 17 31
89 25 31
90 3 31
91 101 32
92 110 32
93 114 32
94 115 32
95 28 32
96 106 33
97 110 33
98 113 33
99 116 33
100 17 33
101 31 33
102 106 34
103 109 34
104 16 34
105 17 34
106 26 34
107 10 35
108 102 35
109 117 35
110 12 35
111 19 35
112 23 35
113 10 36
114 111 36
115 115 36
116 116 36
117 32 36
118 104 37
119 108 37
120 112 37
121 15 37
122 29 37
123 34 37
124 106 38
125 116 38
126 23 38
127 27 38
128 33 38
129 112 39
130 117 39
131 15 39
132 22 39
133 29 39
134 37 39
135 107 4
136 12 4
137 38 4
138 107 40
139 119 40
140 11 41
141 13 41
142 14 41
143 2 41
144 30 41
145 103 42
146 105 42
147 106 42
148 17 42
149 22 42
150 3 42
151 102 43
152 105 43
153 111 43
154 117 43
155 12 43
156 19 43
157 23 43
158 35 43
159 103 44
160 105 44
161 22 44
162 23 44
163 3 44
164 42 44
165 100 45
166 117 45
167 119 45
168 40 45
169 102 46
170 104 46
171 111 46
172 119 46
173 40 46
174 45 46
175 113 47
176 16 47
177 20 47
178 27 47
179 10 48
180 114 48
181 118 48
182 120 48
183 21 48
184 25 48
185 107 49
186 109 49
187 113 49
188 36 49
189 4 49
190 1 5
191 26 5
192 32 5
193 34 5
194 38 5
195 107 50
196 25 50
197 4 50
198 49 50
199 106 51
200 110 51
201 26 51
202 31 51
203 33 51
204 38 51
205 50 51
206 100 52
207 108 52
208 15 52
209 29 52
210 37 52
211 39 52
212 45 52
213 100 53
214 104 53
215 112 53
216 15 53
217 18 53
218 5 53
219 11 54
220 13 54
221 14 54
222 2 54
223 24 54
224 30 54
225 11 55
226 13 55
227 14 55
228 2 55
229 30 55
230 41 55
231 109 56
232 20 56
233 26 56
234 34 56
235 5 56
236 1 57
237 107 57
238 113 57
239 16 57
240 20 57
241 23 57
242 37 57
243 47 57
244 101 58
245 106 58
246 110 58
247 115 58
248 116 58
249 28 58
250 31 58
251 38 58
252 108 59
253 112 59
254 15 59
255 23 59
256 37 59
257 39 59
258 47 59
259 52 59
260 11 6
261 13 6
262 14 6
263 2 6
264 24 6
265 41 6
266 55 6
267 11 60
268 13 60
269 14 60
270 24 60
271 41 60
272 55 60
273 6 60
274 107 61
275 110 61
276 19 61
277 4 61
278 49 61
279 50 61
280 1 62
281 103 62
282 114 62
283 16 62
284 20 62
285 47 62
286 57 62
287 103 63
288 106 63
289 107 63
290 4 63
291 49 63
292 50 63
293 61 63
294 10 64
295 114 64
296 119 64
297 120 64
298 26 64
299 36 64
300 108 65
301 112 65
302 15 65
303 16 65
304 20 65
305 27 65
306 29 65
307 34 65
308 37 65
309 39 65
310 59 65
311 119 66
312 15 66
313 40 66
314 45 66
315 46 66
316 59 66
317 103 67
318 104 67
319 105 67
320 20 67
321 22 67
322 3 67
323 42 67
324 44 67
325 101 68
326 109 68
327 111 68
328 12 68
329 28 68
330 56 68
331 58 68
332 66 68
333 101 69
334 111 69
335 115 69
336 17 69
337 32 69
338 33 69
339 68 69
340 10 7
341 118 7
342 120 7
343 21 7
344 25 7
345 28 7
346 48 7
347 51 7
348 64 7
349 66 7
350 110 70
351 116 70
352 31 70
353 38 70
354 43 70
355 51 70
356 58 70
357 64 70
358 100 71
359 104 71
360 119 71
361 18 71
362 3 71
363 53 71
364 109 72
365 26 72
366 27 72
367 34 72
368 5 72
369 56 72
370 68 72
371 100 73
372 104 73
373 108 73
374 18 73
375 40 73
376 52 73
377 53 73
378 71 73
379 119 74
380 22 74
381 29 74
382 40 74
383 45 74
384 46 74
385 66 74
386 10 75
387 118 75
388 120 75
389 21 75
390 25 75
391 28 75
392 48 75
393 7 75
394 109 76
395 26 76
396 27 76
397 34 76
398 44 76
399 49 76
400 5 76
401 56 76
402 58 76
403 65 76
404 72 76
405 13 77
406 14 77
407 2 77
408 24 77
409 30 77
410 54 77
411 60 77
412 107 78
413 109 78
414 32 78
415 50 78
416 61 78
417 116 79
418 17 79
419 28 79
420 31 79
421 32 79
422 69 79
423 70 79
424 76 79
425 78 79
426 100 8
427 104 8
428 18 8
429 38 8
430 46 8
431 53 8
432 71 8
433 73 8
434 1 80
435 113 80
436 16 80
437 19 80
438 20 80
439 35 80
440 47 80
441 62 80
442 119 81
443 38 81
444 40 81
445 45 81
446 46 81
447 66 81
448 71 81
449 74 81
450 104 82
451 114 82
452 118 82
453 119 82
454 40 82
455 45 82
456 46 82
457 66 82
458 74 82
459 81 82
460 10 83
461 118 83
462 120 83
463 21 83
464 25 83
465 48 83
466 7 83
467 72 83
468 75 83
469 18 84
470 27 84
471 4 84
472 48 84
473 56 84
474 64 84
475 101 85
476 109 85
477 32 85
478 4 85
479 49 85
480 5 85
481 61 85
482 75 85
483 78 85
484 79 85
485 100 86
486 104 86
487 18 86
488 45 86
489 53 86
490 71 86
491 73 86
492 8 86
493 80 86
494 82 86
495 11 87
496 13 87
497 14 87
498 41 87
499 55 87
500 6 87
501 60 87
502 77 87
503 100 88
504 12 88
505 15 88
506 27 88
507 34 88
508 44 88
509 56 88
510 67 88
511 72 88
512 73 88
513 79 88
514 1 89
515 113 89
516 16 89
517 20 89
518 28 89
519 35 89
520 47 89
521 57 89
522 59 89
523 62 89
524 80 89
525 88 89
526 101 9
527 116 9
528 119 9
529 17 9
530 31 9
531 33 9
532 38 9
533 51 9
534 58 9
535 69 9
536 70 9
537 103 90
538 105 90
539 19 90
540 22 90
541 3 90
542 39 90
543 42 90
544 44 90
545 67 90
546 103 91
547 105 91
548 111 91
549 22 91
550 3 91
551 33 91
552 42 91
553 44 91
554 67 91
555 90 91
556 2 92
557 24 92
558 26 92
559 30 92
560 54 92
561 6 92
562 60 92
563 77 92
564 87 92
565 106 93
566 18 93
567 26 93
568 30 93
569 34 93
570 56 93
571 63 93
572 77 93
573 84 93
574 1 94
575 113 94
576 116 94
577 117 94
578 118 94
579 16 94
580 20 94
581 47 94
582 51 94
583 57 94
584 62 94
585 80 94
586 108 95
587 112 95
588 15 95
589 23 95
590 27 95
591 29 95
592 37 95
593 52 95
594 59 95
595 65 95
596 66 95
597 107 96
598 4 96
599 49 96
600 50 96
601 61 96
602 62 96
603 63 96
604 78 96
605 93 96
606 102 97
607 108 97
608 111 97
609 117 97
610 12 97
611 19 97
612 23 97
613 35 97
614 43 97
615 44 97
616 72 97
617 100 98
618 104 98
619 111 98
620 18 98
621 36 98
622 39 98
623 52 98
624 53 98
625 71 98
626 8 98
627 86 98
628 91 98
629 101 99
630 107 99
631 4 99
632 49 99
633 50 99
634 61 99
635 63 99
636 78 99
637 85 99
638 96 99